
  52    4
  10   10   10   10

   0   0   0   0   0   9 2 3 5 6 7 8 9 10 11 
   2   1   1   1   3   8 28 27 19 18 17 16 14 4 
   9   3   2   3   4   9 32 31 30 25 24 23 22 20 12 
   5   5   3   4   2   9 31 30 25 24 23 22 21 15 13 
   6   5   8   4  10  10 38 32 31 29 28 25 24 23 19 18 
   6   6   1   9   3   7 38 32 28 27 17 14 13 
   6   7   2   5   3   7 28 27 25 24 21 19 15 
   8   5   6   2   3   4 28 27 14 13 
   6   7   6   6   8   8 37 36 31 29 28 26 25 21 
  10   2   4   7   3   8 38 36 33 29 28 26 24 23 
   9   8   4   6  10   7 38 36 35 32 27 24 19 
   3   4   4   5   7   8 38 37 36 35 34 33 29 27 
   4   5   6   5   8   7 37 36 35 34 33 29 26 
   6   4   6   5   5   5 36 33 29 26 23 
   1   8   6   6   5   7 51 36 35 34 33 32 29 
   2   3   2   5   8   5 38 35 33 30 26 
   1   4   3   7   3   4 51 37 33 31 
   3   6   4   4   3   6 51 44 41 36 35 33 
   9   4   4   2   2   5 41 40 37 33 26 
   5   6   4   8   2   4 34 33 28 26 
   3   3   4   6   4   6 51 46 44 40 38 33 
   2   3   4   8   5   6 51 46 44 41 40 33 
   1   6   8   5   6   6 49 47 46 43 35 34 
   8   2   4   4   6   6 51 50 47 39 37 34 
   7   7   2   6   4   4 51 46 44 33 
  10   7   2   4   5   9 51 50 49 48 47 46 45 44 39 
   1   4   9   6   6   9 51 50 49 48 47 45 44 40 39 
   2   3   5   5   7  10 51 50 49 48 47 46 45 44 43 42 
   8   3   9   3   4   8 50 49 47 46 44 41 40 39 
   8   6   7   5   5   8 51 50 48 46 44 41 40 39 
   6   6   5   2   5   6 49 48 47 43 40 34 
  10   6   7   4   4   7 49 47 46 45 44 43 40 
   5   4   3   6   3   6 50 49 48 47 45 39 
   1   3   9   8   6   3 45 44 41 
   1   7   7   5   5   3 48 45 40 
   1   3  10   8   3   3 48 46 42 
   8   9   2   3   5   3 46 44 42 
   6   6   8   6   5   3 45 43 42 
   8   7   6   4   5   2 43 42 
   4   6   6   2   4   1 42 
   6   7   5   4   6   1 42 
  10   3   3   3   6   1 52
   3   5   5   7   5   1 52
   3   5   4   6   3   1 52
   9   4   3   4   5   1 52
   7   4   6   5   7   1 52
   8   4   3   9   5   1 52
   9   6  10   7   4   1 52
   9  10   8   4   7   1 52
   2   6   6   5   7   1 52
   3   2   4   2   6   1 52
   0   0   0   0   0   0 
